# avogadro generated ORCA input file 
# Basic Mode
# 
! PBE FREQ def2-TZVP

* xyzfile 0 1 opt.xyz

