# avogadro generated ORCA input file 
# Basic Mode
# 
! PBE OPT def2-TZVP

* xyzfile 0 1 C2H5OH.xyz

